NAME : kroB100-C-5-1-a__bsl__29161.tour
COMMENT : Length = 29161.000
COMMENT : Generated by compare_sota_instances.py for bsl
TYPE : TOUR
DIMENSION : 100
TOUR_SECTION
1
12
43
89
87
83
4
66
6
15
51
48
31
63
82
33
64
14
42
2
13
78
17
41
44
92
19
96
45
36
16
50
77
18
24
55
88
22
23
47
65
75
30
90
95
98
29
8
97
99
76
59
32
71
27
94
61
35
60
74
57
34
7
58
84
52
54
72
37
20
80
38
49
86
68
10
21
46
25
9
79
81
56
100
26
69
62
5
67
70
39
40
53
73
85
93
11
3
91
28
-1
EOF
